100 4950
1 2 1
1 3 1
1 4 5
1 5 1
1 6 3
1 7 4
1 8 1
1 9 2
1 10 1
1 11 5
1 12 4
1 13 1
1 14 2
1 15 1
1 16 3
1 17 5
1 18 1
1 19 3
1 20 3
1 21 1
1 22 2
1 23 3
1 24 2
1 25 1
1 26 2
1 27 2
1 28 5
1 29 1
1 30 4
1 31 2
1 32 3
1 33 2
1 34 4
1 35 4
1 36 3
1 37 2
1 38 4
1 39 3
1 40 2
1 41 5
1 42 1
1 43 1
1 44 4
1 45 2
1 46 2
1 47 5
1 48 3
1 49 5
1 50 3
1 51 1
1 52 4
1 53 2
1 54 1
1 55 1
1 56 2
1 57 1
1 58 1
1 59 3
1 60 3
1 61 1
1 62 4
1 63 1
1 64 4
1 65 3
1 66 4
1 67 1
1 68 5
1 69 5
1 70 4
1 71 3
1 72 3
1 73 4
1 74 2
1 75 1
1 76 5
1 77 5
1 78 3
1 79 2
1 80 5
1 81 3
1 82 4
1 83 1
1 84 4
1 85 3
1 86 1
1 87 3
1 88 2
1 89 2
1 90 5
1 91 2
1 92 2
1 93 3
1 94 2
1 95 3
1 96 5
1 97 5
1 98 2
1 99 3
1 100 2
2 3 4
2 4 2
2 5 4
2 6 5
2 7 3
2 8 5
2 9 3
2 10 5
2 11 4
2 12 4
2 13 5
2 14 1
2 15 1
2 16 2
2 17 5
2 18 1
2 19 4
2 20 2
2 21 4
2 22 5
2 23 2
2 24 4
2 25 5
2 26 4
2 27 3
2 28 1
2 29 5
2 30 3
2 31 3
2 32 3
2 33 3
2 34 1
2 35 1
2 36 2
2 37 4
2 38 3
2 39 2
2 40 3
2 41 2
2 42 4
2 43 5
2 44 3
2 45 3
2 46 2
2 47 3
2 48 5
2 49 3
2 50 1
2 51 2
2 52 2
2 53 1
2 54 1
2 55 2
2 56 1
2 57 5
2 58 4
2 59 4
2 60 5
2 61 4
2 62 1
2 63 5
2 64 2
2 65 3
2 66 1
2 67 5
2 68 5
2 69 4
2 70 5
2 71 4
2 72 4
2 73 3
2 74 5
2 75 2
2 76 4
2 77 5
2 78 2
2 79 2
2 80 3
2 81 4
2 82 3
2 83 2
2 84 3
2 85 4
2 86 4
2 87 3
2 88 4
2 89 5
2 90 5
2 91 4
2 92 3
2 93 4
2 94 1
2 95 3
2 96 2
2 97 1
2 98 2
2 99 1
2 100 4
3 4 1
3 5 3
3 6 1
3 7 3
3 8 5
3 9 1
3 10 1
3 11 5
3 12 1
3 13 1
3 14 4
3 15 1
3 16 5
3 17 3
3 18 4
3 19 2
3 20 2
3 21 1
3 22 4
3 23 4
3 24 5
3 25 5
3 26 3
3 27 3
3 28 2
3 29 1
3 30 2
3 31 1
3 32 4
3 33 5
3 34 2
3 35 2
3 36 4
3 37 4
3 38 5
3 39 5
3 40 5
3 41 2
3 42 2
3 43 3
3 44 2
3 45 3
3 46 2
3 47 1
3 48 2
3 49 3
3 50 1
3 51 2
3 52 5
3 53 1
3 54 5
3 55 2
3 56 3
3 57 4
3 58 1
3 59 5
3 60 1
3 61 4
3 62 3
3 63 2
3 64 5
3 65 2
3 66 4
3 67 4
3 68 3
3 69 3
3 70 4
3 71 4
3 72 4
3 73 4
3 74 5
3 75 3
3 76 1
3 77 4
3 78 1
3 79 5
3 80 2
3 81 1
3 82 1
3 83 4
3 84 2
3 85 1
3 86 2
3 87 1
3 88 4
3 89 1
3 90 5
3 91 1
3 92 1
3 93 1
3 94 2
3 95 2
3 96 2
3 97 4
3 98 3
3 99 4
3 100 4
4 5 2
4 6 4
4 7 4
4 8 3
4 9 1
4 10 4
4 11 1
4 12 2
4 13 1
4 14 5
4 15 5
4 16 5
4 17 5
4 18 4
4 19 1
4 20 4
4 21 1
4 22 3
4 23 5
4 24 1
4 25 4
4 26 4
4 27 1
4 28 1
4 29 1
4 30 2
4 31 1
4 32 4
4 33 5
4 34 2
4 35 2
4 36 4
4 37 3
4 38 3
4 39 1
4 40 2
4 41 4
4 42 1
4 43 4
4 44 1
4 45 4
4 46 3
4 47 4
4 48 1
4 49 4
4 50 2
4 51 4
4 52 1
4 53 5
4 54 1
4 55 2
4 56 3
4 57 5
4 58 1
4 59 4
4 60 3
4 61 3
4 62 3
4 63 4
4 64 5
4 65 3
4 66 3
4 67 3
4 68 1
4 69 5
4 70 4
4 71 1
4 72 2
4 73 2
4 74 2
4 75 4
4 76 1
4 77 2
4 78 2
4 79 2
4 80 4
4 81 3
4 82 5
4 83 3
4 84 4
4 85 5
4 86 3
4 87 4
4 88 3
4 89 2
4 90 3
4 91 2
4 92 4
4 93 4
4 94 5
4 95 4
4 96 4
4 97 5
4 98 2
4 99 4
4 100 3
5 6 2
5 7 3
5 8 5
5 9 1
5 10 1
5 11 3
5 12 1
5 13 5
5 14 2
5 15 5
5 16 1
5 17 1
5 18 4
5 19 4
5 20 3
5 21 1
5 22 2
5 23 4
5 24 4
5 25 1
5 26 1
5 27 3
5 28 4
5 29 2
5 30 4
5 31 4
5 32 4
5 33 4
5 34 3
5 35 2
5 36 5
5 37 3
5 38 4
5 39 1
5 40 2
5 41 3
5 42 3
5 43 4
5 44 1
5 45 4
5 46 3
5 47 5
5 48 4
5 49 1
5 50 2
5 51 5
5 52 5
5 53 1
5 54 3
5 55 2
5 56 3
5 57 3
5 58 2
5 59 3
5 60 3
5 61 2
5 62 1
5 63 5
5 64 4
5 65 5
5 66 3
5 67 4
5 68 4
5 69 4
5 70 1
5 71 1
5 72 1
5 73 1
5 74 3
5 75 3
5 76 4
5 77 3
5 78 5
5 79 2
5 80 4
5 81 4
5 82 1
5 83 5
5 84 3
5 85 1
5 86 2
5 87 5
5 88 3
5 89 3
5 90 5
5 91 5
5 92 3
5 93 4
5 94 2
5 95 5
5 96 1
5 97 3
5 98 2
5 99 5
5 100 3
6 7 4
6 8 5
6 9 1
6 10 2
6 11 2
6 12 1
6 13 5
6 14 4
6 15 1
6 16 5
6 17 4
6 18 1
6 19 5
6 20 3
6 21 2
6 22 3
6 23 3
6 24 2
6 25 3
6 26 3
6 27 5
6 28 5
6 29 5
6 30 4
6 31 1
6 32 4
6 33 2
6 34 3
6 35 1
6 36 4
6 37 4
6 38 3
6 39 2
6 40 1
6 41 2
6 42 4
6 43 4
6 44 2
6 45 3
6 46 5
6 47 3
6 48 1
6 49 5
6 50 2
6 51 3
6 52 3
6 53 5
6 54 4
6 55 1
6 56 1
6 57 4
6 58 4
6 59 4
6 60 2
6 61 2
6 62 3
6 63 5
6 64 3
6 65 2
6 66 5
6 67 4
6 68 1
6 69 1
6 70 4
6 71 3
6 72 4
6 73 1
6 74 1
6 75 3
6 76 3
6 77 1
6 78 3
6 79 1
6 80 2
6 81 1
6 82 1
6 83 2
6 84 4
6 85 2
6 86 3
6 87 4
6 88 5
6 89 4
6 90 1
6 91 4
6 92 1
6 93 1
6 94 5
6 95 2
6 96 2
6 97 4
6 98 1
6 99 3
6 100 4
7 8 4
7 9 1
7 10 1
7 11 4
7 12 2
7 13 5
7 14 4
7 15 2
7 16 5
7 17 2
7 18 2
7 19 5
7 20 5
7 21 5
7 22 3
7 23 5
7 24 3
7 25 5
7 26 4
7 27 1
7 28 4
7 29 4
7 30 1
7 31 3
7 32 5
7 33 4
7 34 2
7 35 1
7 36 3
7 37 4
7 38 2
7 39 5
7 40 5
7 41 5
7 42 1
7 43 3
7 44 1
7 45 5
7 46 1
7 47 5
7 48 5
7 49 1
7 50 3
7 51 4
7 52 4
7 53 3
7 54 3
7 55 4
7 56 2
7 57 3
7 58 1
7 59 2
7 60 4
7 61 2
7 62 3
7 63 4
7 64 5
7 65 3
7 66 2
7 67 1
7 68 2
7 69 1
7 70 4
7 71 4
7 72 5
7 73 2
7 74 5
7 75 1
7 76 1
7 77 3
7 78 3
7 79 2
7 80 3
7 81 2
7 82 1
7 83 3
7 84 1
7 85 3
7 86 3
7 87 5
7 88 5
7 89 5
7 90 2
7 91 3
7 92 5
7 93 5
7 94 4
7 95 4
7 96 5
7 97 4
7 98 3
7 99 3
7 100 3
8 9 2
8 10 3
8 11 5
8 12 5
8 13 3
8 14 4
8 15 4
8 16 2
8 17 1
8 18 1
8 19 4
8 20 1
8 21 5
8 22 4
8 23 1
8 24 4
8 25 5
8 26 1
8 27 1
8 28 3
8 29 3
8 30 3
8 31 1
8 32 3
8 33 2
8 34 1
8 35 2
8 36 2
8 37 4
8 38 4
8 39 2
8 40 2
8 41 1
8 42 4
8 43 1
8 44 1
8 45 3
8 46 4
8 47 1
8 48 3
8 49 2
8 50 1
8 51 5
8 52 5
8 53 4
8 54 3
8 55 4
8 56 1
8 57 1
8 58 5
8 59 4
8 60 4
8 61 4
8 62 4
8 63 1
8 64 2
8 65 1
8 66 3
8 67 5
8 68 4
8 69 5
8 70 2
8 71 1
8 72 1
8 73 3
8 74 3
8 75 1
8 76 5
8 77 5
8 78 4
8 79 5
8 80 4
8 81 3
8 82 5
8 83 3
8 84 1
8 85 2
8 86 5
8 87 4
8 88 3
8 89 1
8 90 2
8 91 3
8 92 2
8 93 1
8 94 4
8 95 3
8 96 3
8 97 2
8 98 1
8 99 2
8 100 5
9 10 1
9 11 3
9 12 2
9 13 1
9 14 2
9 15 2
9 16 1
9 17 2
9 18 1
9 19 3
9 20 5
9 21 2
9 22 2
9 23 3
9 24 4
9 25 5
9 26 5
9 27 2
9 28 3
9 29 4
9 30 4
9 31 3
9 32 3
9 33 2
9 34 3
9 35 3
9 36 3
9 37 5
9 38 1
9 39 5
9 40 3
9 41 4
9 42 3
9 43 1
9 44 3
9 45 2
9 46 3
9 47 5
9 48 2
9 49 2
9 50 1
9 51 1
9 52 2
9 53 2
9 54 1
9 55 1
9 56 3
9 57 3
9 58 5
9 59 5
9 60 5
9 61 2
9 62 1
9 63 2
9 64 4
9 65 1
9 66 1
9 67 5
9 68 5
9 69 3
9 70 1
9 71 4
9 72 3
9 73 4
9 74 4
9 75 3
9 76 1
9 77 1
9 78 3
9 79 1
9 80 5
9 81 4
9 82 4
9 83 3
9 84 3
9 85 2
9 86 3
9 87 5
9 88 1
9 89 4
9 90 1
9 91 1
9 92 1
9 93 2
9 94 3
9 95 5
9 96 5
9 97 4
9 98 5
9 99 5
9 100 4
10 11 1
10 12 3
10 13 3
10 14 5
10 15 4
10 16 3
10 17 3
10 18 4
10 19 1
10 20 1
10 21 5
10 22 5
10 23 2
10 24 5
10 25 2
10 26 4
10 27 1
10 28 5
10 29 3
10 30 4
10 31 1
10 32 5
10 33 1
10 34 5
10 35 2
10 36 5
10 37 4
10 38 4
10 39 5
10 40 3
10 41 5
10 42 4
10 43 4
10 44 5
10 45 3
10 46 5
10 47 5
10 48 4
10 49 5
10 50 2
10 51 4
10 52 1
10 53 4
10 54 5
10 55 4
10 56 5
10 57 4
10 58 1
10 59 5
10 60 4
10 61 4
10 62 3
10 63 2
10 64 1
10 65 1
10 66 3
10 67 1
10 68 2
10 69 1
10 70 1
10 71 4
10 72 5
10 73 3
10 74 2
10 75 1
10 76 1
10 77 2
10 78 2
10 79 3
10 80 3
10 81 2
10 82 1
10 83 5
10 84 3
10 85 4
10 86 1
10 87 5
10 88 4
10 89 4
10 90 4
10 91 4
10 92 5
10 93 3
10 94 1
10 95 5
10 96 2
10 97 1
10 98 5
10 99 2
10 100 1
11 12 5
11 13 4
11 14 4
11 15 1
11 16 2
11 17 5
11 18 1
11 19 3
11 20 3
11 21 3
11 22 4
11 23 1
11 24 2
11 25 1
11 26 2
11 27 2
11 28 2
11 29 4
11 30 2
11 31 5
11 32 1
11 33 5
11 34 3
11 35 2
11 36 4
11 37 5
11 38 5
11 39 3
11 40 1
11 41 4
11 42 3
11 43 3
11 44 3
11 45 2
11 46 5
11 47 2
11 48 4
11 49 1
11 50 3
11 51 4
11 52 5
11 53 2
11 54 4
11 55 2
11 56 4
11 57 2
11 58 4
11 59 3
11 60 4
11 61 2
11 62 1
11 63 1
11 64 4
11 65 3
11 66 5
11 67 5
11 68 5
11 69 2
11 70 4
11 71 1
11 72 1
11 73 5
11 74 1
11 75 4
11 76 2
11 77 5
11 78 2
11 79 1
11 80 2
11 81 1
11 82 2
11 83 5
11 84 2
11 85 3
11 86 3
11 87 3
11 88 3
11 89 4
11 90 4
11 91 1
11 92 2
11 93 1
11 94 2
11 95 5
11 96 5
11 97 3
11 98 5
11 99 3
11 100 3
12 13 5
12 14 2
12 15 5
12 16 2
12 17 4
12 18 5
12 19 2
12 20 4
12 21 4
12 22 5
12 23 4
12 24 5
12 25 3
12 26 4
12 27 3
12 28 2
12 29 5
12 30 2
12 31 2
12 32 2
12 33 4
12 34 3
12 35 1
12 36 5
12 37 4
12 38 1
12 39 1
12 40 1
12 41 5
12 42 1
12 43 3
12 44 1
12 45 4
12 46 3
12 47 5
12 48 3
12 49 5
12 50 1
12 51 2
12 52 3
12 53 2
12 54 4
12 55 2
12 56 5
12 57 1
12 58 1
12 59 1
12 60 5
12 61 4
12 62 2
12 63 5
12 64 2
12 65 4
12 66 1
12 67 4
12 68 1
12 69 4
12 70 3
12 71 3
12 72 5
12 73 1
12 74 3
12 75 1
12 76 2
12 77 5
12 78 3
12 79 3
12 80 3
12 81 3
12 82 2
12 83 2
12 84 1
12 85 1
12 86 1
12 87 1
12 88 2
12 89 2
12 90 4
12 91 1
12 92 5
12 93 3
12 94 2
12 95 1
12 96 2
12 97 5
12 98 5
12 99 1
12 100 2
13 14 1
13 15 4
13 16 1
13 17 3
13 18 4
13 19 3
13 20 2
13 21 1
13 22 3
13 23 4
13 24 4
13 25 3
13 26 3
13 27 5
13 28 2
13 29 3
13 30 3
13 31 5
13 32 4
13 33 4
13 34 2
13 35 1
13 36 5
13 37 1
13 38 4
13 39 5
13 40 2
13 41 2
13 42 5
13 43 3
13 44 3
13 45 5
13 46 4
13 47 3
13 48 2
13 49 1
13 50 3
13 51 5
13 52 5
13 53 1
13 54 2
13 55 4
13 56 5
13 57 4
13 58 2
13 59 3
13 60 1
13 61 1
13 62 3
13 63 1
13 64 4
13 65 2
13 66 2
13 67 4
13 68 3
13 69 3
13 70 3
13 71 5
13 72 4
13 73 4
13 74 1
13 75 2
13 76 5
13 77 3
13 78 5
13 79 5
13 80 3
13 81 2
13 82 4
13 83 1
13 84 4
13 85 3
13 86 3
13 87 1
13 88 5
13 89 5
13 90 2
13 91 1
13 92 5
13 93 5
13 94 4
13 95 4
13 96 1
13 97 2
13 98 4
13 99 2
13 100 1
14 15 3
14 16 4
14 17 5
14 18 5
14 19 4
14 20 2
14 21 1
14 22 5
14 23 3
14 24 1
14 25 5
14 26 4
14 27 3
14 28 3
14 29 2
14 30 1
14 31 5
14 32 2
14 33 5
14 34 2
14 35 5
14 36 4
14 37 5
14 38 3
14 39 4
14 40 4
14 41 4
14 42 1
14 43 5
14 44 4
14 45 2
14 46 2
14 47 2
14 48 5
14 49 4
14 50 2
14 51 3
14 52 1
14 53 1
14 54 4
14 55 2
14 56 3
14 57 2
14 58 2
14 59 2
14 60 5
14 61 3
14 62 3
14 63 4
14 64 3
14 65 1
14 66 2
14 67 3
14 68 1
14 69 4
14 70 4
14 71 2
14 72 3
14 73 3
14 74 3
14 75 1
14 76 3
14 77 5
14 78 1
14 79 3
14 80 4
14 81 5
14 82 2
14 83 4
14 84 1
14 85 1
14 86 2
14 87 3
14 88 3
14 89 1
14 90 4
14 91 5
14 92 2
14 93 4
14 94 4
14 95 2
14 96 4
14 97 5
14 98 5
14 99 1
14 100 3
15 16 4
15 17 3
15 18 4
15 19 3
15 20 5
15 21 2
15 22 3
15 23 3
15 24 5
15 25 1
15 26 2
15 27 5
15 28 2
15 29 4
15 30 5
15 31 3
15 32 2
15 33 4
15 34 2
15 35 1
15 36 4
15 37 1
15 38 1
15 39 1
15 40 3
15 41 5
15 42 4
15 43 1
15 44 3
15 45 3
15 46 2
15 47 1
15 48 1
15 49 5
15 50 4
15 51 2
15 52 3
15 53 4
15 54 5
15 55 4
15 56 3
15 57 5
15 58 1
15 59 2
15 60 3
15 61 5
15 62 1
15 63 2
15 64 2
15 65 3
15 66 1
15 67 4
15 68 3
15 69 5
15 70 4
15 71 4
15 72 4
15 73 3
15 74 4
15 75 5
15 76 5
15 77 4
15 78 2
15 79 1
15 80 1
15 81 2
15 82 4
15 83 3
15 84 3
15 85 3
15 86 4
15 87 2
15 88 3
15 89 5
15 90 1
15 91 2
15 92 1
15 93 3
15 94 4
15 95 4
15 96 3
15 97 2
15 98 4
15 99 2
15 100 2
16 17 3
16 18 2
16 19 5
16 20 5
16 21 1
16 22 2
16 23 5
16 24 5
16 25 5
16 26 1
16 27 4
16 28 4
16 29 4
16 30 5
16 31 1
16 32 1
16 33 4
16 34 5
16 35 5
16 36 5
16 37 5
16 38 5
16 39 3
16 40 1
16 41 5
16 42 3
16 43 2
16 44 4
16 45 1
16 46 2
16 47 1
16 48 4
16 49 3
16 50 3
16 51 1
16 52 1
16 53 3
16 54 2
16 55 5
16 56 3
16 57 5
16 58 5
16 59 1
16 60 2
16 61 4
16 62 1
16 63 5
16 64 1
16 65 1
16 66 2
16 67 5
16 68 3
16 69 2
16 70 5
16 71 4
16 72 3
16 73 5
16 74 2
16 75 1
16 76 3
16 77 1
16 78 2
16 79 3
16 80 4
16 81 5
16 82 1
16 83 5
16 84 4
16 85 5
16 86 4
16 87 4
16 88 4
16 89 3
16 90 2
16 91 1
16 92 4
16 93 4
16 94 3
16 95 3
16 96 2
16 97 4
16 98 3
16 99 5
16 100 1
17 18 2
17 19 3
17 20 4
17 21 1
17 22 2
17 23 5
17 24 1
17 25 4
17 26 5
17 27 2
17 28 4
17 29 1
17 30 2
17 31 4
17 32 4
17 33 2
17 34 4
17 35 5
17 36 1
17 37 2
17 38 2
17 39 1
17 40 5
17 41 4
17 42 3
17 43 1
17 44 3
17 45 3
17 46 1
17 47 1
17 48 4
17 49 2
17 50 4
17 51 3
17 52 2
17 53 4
17 54 4
17 55 1
17 56 5
17 57 5
17 58 2
17 59 3
17 60 5
17 61 2
17 62 2
17 63 1
17 64 1
17 65 4
17 66 3
17 67 2
17 68 4
17 69 1
17 70 4
17 71 4
17 72 2
17 73 2
17 74 5
17 75 1
17 76 4
17 77 3
17 78 5
17 79 5
17 80 3
17 81 3
17 82 2
17 83 2
17 84 2
17 85 2
17 86 3
17 87 2
17 88 3
17 89 2
17 90 5
17 91 2
17 92 4
17 93 5
17 94 3
17 95 2
17 96 3
17 97 2
17 98 2
17 99 2
17 100 1
18 19 4
18 20 2
18 21 2
18 22 2
18 23 4
18 24 1
18 25 2
18 26 5
18 27 4
18 28 4
18 29 4
18 30 2
18 31 3
18 32 2
18 33 2
18 34 1
18 35 4
18 36 4
18 37 3
18 38 2
18 39 4
18 40 5
18 41 1
18 42 3
18 43 5
18 44 3
18 45 3
18 46 4
18 47 1
18 48 4
18 49 1
18 50 1
18 51 5
18 52 1
18 53 2
18 54 5
18 55 5
18 56 3
18 57 4
18 58 5
18 59 3
18 60 1
18 61 4
18 62 4
18 63 2
18 64 1
18 65 5
18 66 5
18 67 2
18 68 4
18 69 2
18 70 3
18 71 1
18 72 1
18 73 3
18 74 4
18 75 4
18 76 5
18 77 1
18 78 2
18 79 3
18 80 1
18 81 1
18 82 4
18 83 4
18 84 5
18 85 2
18 86 1
18 87 3
18 88 4
18 89 4
18 90 1
18 91 3
18 92 1
18 93 2
18 94 3
18 95 5
18 96 1
18 97 5
18 98 3
18 99 2
18 100 4
19 20 1
19 21 5
19 22 3
19 23 4
19 24 1
19 25 5
19 26 3
19 27 2
19 28 1
19 29 4
19 30 1
19 31 1
19 32 4
19 33 2
19 34 3
19 35 3
19 36 1
19 37 4
19 38 3
19 39 4
19 40 1
19 41 2
19 42 2
19 43 5
19 44 3
19 45 1
19 46 4
19 47 1
19 48 4
19 49 5
19 50 3
19 51 3
19 52 1
19 53 5
19 54 4
19 55 5
19 56 3
19 57 5
19 58 4
19 59 2
19 60 2
19 61 4
19 62 3
19 63 5
19 64 1
19 65 3
19 66 5
19 67 5
19 68 2
19 69 3
19 70 3
19 71 1
19 72 4
19 73 4
19 74 3
19 75 4
19 76 2
19 77 3
19 78 3
19 79 1
19 80 3
19 81 1
19 82 1
19 83 1
19 84 5
19 85 5
19 86 5
19 87 5
19 88 3
19 89 5
19 90 1
19 91 3
19 92 4
19 93 2
19 94 3
19 95 3
19 96 5
19 97 5
19 98 2
19 99 3
19 100 4
20 21 4
20 22 2
20 23 3
20 24 5
20 25 1
20 26 4
20 27 1
20 28 2
20 29 5
20 30 4
20 31 2
20 32 1
20 33 1
20 34 4
20 35 5
20 36 3
20 37 2
20 38 5
20 39 1
20 40 3
20 41 2
20 42 5
20 43 5
20 44 3
20 45 4
20 46 3
20 47 5
20 48 4
20 49 1
20 50 1
20 51 5
20 52 2
20 53 3
20 54 4
20 55 2
20 56 3
20 57 3
20 58 5
20 59 1
20 60 3
20 61 2
20 62 5
20 63 4
20 64 3
20 65 2
20 66 5
20 67 3
20 68 2
20 69 4
20 70 2
20 71 4
20 72 3
20 73 2
20 74 4
20 75 4
20 76 3
20 77 4
20 78 3
20 79 5
20 80 3
20 81 4
20 82 4
20 83 3
20 84 4
20 85 5
20 86 1
20 87 4
20 88 5
20 89 4
20 90 3
20 91 3
20 92 4
20 93 3
20 94 1
20 95 2
20 96 1
20 97 3
20 98 2
20 99 4
20 100 1
21 22 1
21 23 4
21 24 3
21 25 4
21 26 2
21 27 5
21 28 3
21 29 4
21 30 3
21 31 4
21 32 5
21 33 4
21 34 5
21 35 5
21 36 3
21 37 4
21 38 1
21 39 5
21 40 4
21 41 1
21 42 1
21 43 4
21 44 3
21 45 5
21 46 4
21 47 5
21 48 2
21 49 3
21 50 5
21 51 3
21 52 2
21 53 4
21 54 2
21 55 5
21 56 1
21 57 4
21 58 5
21 59 5
21 60 1
21 61 1
21 62 5
21 63 4
21 64 3
21 65 1
21 66 1
21 67 2
21 68 5
21 69 3
21 70 3
21 71 5
21 72 2
21 73 4
21 74 1
21 75 3
21 76 5
21 77 4
21 78 4
21 79 1
21 80 1
21 81 5
21 82 3
21 83 5
21 84 2
21 85 2
21 86 1
21 87 5
21 88 4
21 89 4
21 90 3
21 91 2
21 92 1
21 93 3
21 94 2
21 95 1
21 96 4
21 97 5
21 98 5
21 99 5
21 100 4
22 23 5
22 24 1
22 25 5
22 26 3
22 27 5
22 28 5
22 29 2
22 30 3
22 31 3
22 32 1
22 33 1
22 34 3
22 35 2
22 36 3
22 37 1
22 38 3
22 39 2
22 40 4
22 41 3
22 42 4
22 43 5
22 44 2
22 45 4
22 46 1
22 47 1
22 48 1
22 49 1
22 50 1
22 51 4
22 52 2
22 53 5
22 54 5
22 55 5
22 56 3
22 57 2
22 58 4
22 59 2
22 60 3
22 61 2
22 62 3
22 63 5
22 64 4
22 65 2
22 66 5
22 67 5
22 68 1
22 69 5
22 70 1
22 71 1
22 72 5
22 73 1
22 74 4
22 75 4
22 76 1
22 77 5
22 78 1
22 79 4
22 80 5
22 81 5
22 82 4
22 83 1
22 84 4
22 85 5
22 86 5
22 87 2
22 88 1
22 89 1
22 90 1
22 91 5
22 92 1
22 93 3
22 94 3
22 95 3
22 96 2
22 97 2
22 98 3
22 99 5
22 100 4
23 24 4
23 25 3
23 26 3
23 27 2
23 28 4
23 29 3
23 30 1
23 31 4
23 32 1
23 33 1
23 34 5
23 35 3
23 36 4
23 37 1
23 38 3
23 39 4
23 40 3
23 41 5
23 42 5
23 43 3
23 44 1
23 45 3
23 46 2
23 47 4
23 48 1
23 49 4
23 50 1
23 51 5
23 52 2
23 53 1
23 54 4
23 55 5
23 56 2
23 57 2
23 58 1
23 59 1
23 60 1
23 61 5
23 62 5
23 63 2
23 64 2
23 65 2
23 66 3
23 67 5
23 68 5
23 69 4
23 70 3
23 71 2
23 72 3
23 73 1
23 74 4
23 75 2
23 76 4
23 77 1
23 78 2
23 79 3
23 80 2
23 81 3
23 82 3
23 83 4
23 84 5
23 85 2
23 86 2
23 87 5
23 88 4
23 89 5
23 90 2
23 91 3
23 92 2
23 93 5
23 94 1
23 95 1
23 96 4
23 97 3
23 98 5
23 99 1
23 100 1
24 25 5
24 26 3
24 27 3
24 28 1
24 29 1
24 30 4
24 31 1
24 32 5
24 33 1
24 34 3
24 35 1
24 36 1
24 37 1
24 38 2
24 39 2
24 40 1
24 41 4
24 42 2
24 43 5
24 44 1
24 45 1
24 46 5
24 47 1
24 48 3
24 49 3
24 50 3
24 51 1
24 52 2
24 53 5
24 54 4
24 55 3
24 56 3
24 57 4
24 58 1
24 59 2
24 60 4
24 61 3
24 62 3
24 63 2
24 64 2
24 65 5
24 66 2
24 67 3
24 68 2
24 69 2
24 70 2
24 71 3
24 72 1
24 73 4
24 74 5
24 75 2
24 76 1
24 77 2
24 78 2
24 79 3
24 80 2
24 81 5
24 82 5
24 83 5
24 84 1
24 85 2
24 86 5
24 87 5
24 88 5
24 89 1
24 90 4
24 91 2
24 92 4
24 93 4
24 94 2
24 95 4
24 96 4
24 97 1
24 98 1
24 99 2
24 100 2
25 26 5
25 27 2
25 28 4
25 29 2
25 30 4
25 31 1
25 32 3
25 33 1
25 34 2
25 35 4
25 36 3
25 37 5
25 38 5
25 39 4
25 40 5
25 41 4
25 42 1
25 43 5
25 44 4
25 45 2
25 46 1
25 47 2
25 48 5
25 49 3
25 50 1
25 51 5
25 52 2
25 53 3
25 54 4
25 55 5
25 56 5
25 57 3
25 58 4
25 59 3
25 60 2
25 61 1
25 62 1
25 63 3
25 64 3
25 65 4
25 66 4
25 67 5
25 68 2
25 69 5
25 70 3
25 71 5
25 72 5
25 73 4
25 74 4
25 75 1
25 76 2
25 77 2
25 78 3
25 79 4
25 80 3
25 81 4
25 82 5
25 83 2
25 84 5
25 85 2
25 86 2
25 87 4
25 88 1
25 89 5
25 90 1
25 91 5
25 92 3
25 93 4
25 94 1
25 95 2
25 96 3
25 97 3
25 98 5
25 99 5
25 100 1
26 27 3
26 28 5
26 29 2
26 30 2
26 31 3
26 32 5
26 33 5
26 34 5
26 35 5
26 36 1
26 37 5
26 38 3
26 39 2
26 40 3
26 41 2
26 42 3
26 43 5
26 44 2
26 45 5
26 46 4
26 47 3
26 48 4
26 49 4
26 50 4
26 51 4
26 52 4
26 53 1
26 54 4
26 55 3
26 56 4
26 57 1
26 58 1
26 59 1
26 60 4
26 61 3
26 62 2
26 63 5
26 64 1
26 65 4
26 66 4
26 67 4
26 68 1
26 69 1
26 70 1
26 71 2
26 72 3
26 73 2
26 74 4
26 75 2
26 76 4
26 77 5
26 78 5
26 79 4
26 80 3
26 81 1
26 82 5
26 83 2
26 84 2
26 85 2
26 86 1
26 87 1
26 88 1
26 89 4
26 90 4
26 91 5
26 92 1
26 93 5
26 94 2
26 95 3
26 96 4
26 97 5
26 98 2
26 99 4
26 100 3
27 28 4
27 29 4
27 30 4
27 31 2
27 32 2
27 33 2
27 34 5
27 35 3
27 36 3
27 37 2
27 38 5
27 39 4
27 40 2
27 41 1
27 42 4
27 43 4
27 44 2
27 45 1
27 46 3
27 47 3
27 48 4
27 49 1
27 50 2
27 51 3
27 52 1
27 53 2
27 54 4
27 55 2
27 56 4
27 57 4
27 58 4
27 59 4
27 60 5
27 61 5
27 62 5
27 63 1
27 64 1
27 65 5
27 66 4
27 67 2
27 68 5
27 69 1
27 70 3
27 71 2
27 72 2
27 73 3
27 74 5
27 75 1
27 76 1
27 77 1
27 78 4
27 79 3
27 80 2
27 81 4
27 82 3
27 83 2
27 84 5
27 85 4
27 86 4
27 87 3
27 88 4
27 89 3
27 90 3
27 91 1
27 92 1
27 93 1
27 94 4
27 95 3
27 96 1
27 97 4
27 98 4
27 99 1
27 100 1
28 29 5
28 30 4
28 31 4
28 32 5
28 33 3
28 34 4
28 35 1
28 36 5
28 37 4
28 38 2
28 39 2
28 40 5
28 41 2
28 42 3
28 43 3
28 44 2
28 45 1
28 46 1
28 47 4
28 48 5
28 49 3
28 50 4
28 51 3
28 52 5
28 53 1
28 54 4
28 55 1
28 56 2
28 57 4
28 58 2
28 59 3
28 60 4
28 61 3
28 62 2
28 63 2
28 64 3
28 65 1
28 66 4
28 67 2
28 68 4
28 69 4
28 70 4
28 71 1
28 72 5
28 73 4
28 74 5
28 75 2
28 76 3
28 77 3
28 78 4
28 79 5
28 80 2
28 81 1
28 82 4
28 83 1
28 84 4
28 85 5
28 86 4
28 87 3
28 88 4
28 89 3
28 90 4
28 91 4
28 92 3
28 93 4
28 94 3
28 95 3
28 96 3
28 97 3
28 98 5
28 99 5
28 100 5
29 30 4
29 31 3
29 32 1
29 33 5
29 34 3
29 35 4
29 36 3
29 37 5
29 38 4
29 39 5
29 40 4
29 41 4
29 42 1
29 43 4
29 44 5
29 45 4
29 46 2
29 47 3
29 48 2
29 49 3
29 50 5
29 51 3
29 52 1
29 53 3
29 54 4
29 55 1
29 56 4
29 57 3
29 58 2
29 59 3
29 60 5
29 61 4
29 62 5
29 63 1
29 64 4
29 65 2
29 66 2
29 67 5
29 68 4
29 69 4
29 70 5
29 71 4
29 72 2
29 73 1
29 74 4
29 75 4
29 76 5
29 77 5
29 78 1
29 79 3
29 80 1
29 81 4
29 82 5
29 83 4
29 84 5
29 85 2
29 86 4
29 87 5
29 88 1
29 89 1
29 90 5
29 91 4
29 92 2
29 93 4
29 94 2
29 95 3
29 96 1
29 97 3
29 98 1
29 99 4
29 100 4
30 31 1
30 32 4
30 33 1
30 34 1
30 35 3
30 36 3
30 37 3
30 38 5
30 39 3
30 40 4
30 41 1
30 42 3
30 43 5
30 44 5
30 45 5
30 46 1
30 47 1
30 48 2
30 49 4
30 50 1
30 51 5
30 52 3
30 53 2
30 54 1
30 55 1
30 56 4
30 57 2
30 58 3
30 59 1
30 60 2
30 61 2
30 62 5
30 63 5
30 64 3
30 65 1
30 66 5
30 67 5
30 68 1
30 69 2
30 70 2
30 71 3
30 72 3
30 73 4
30 74 5
30 75 4
30 76 3
30 77 1
30 78 3
30 79 3
30 80 2
30 81 5
30 82 5
30 83 4
30 84 1
30 85 3
30 86 1
30 87 1
30 88 5
30 89 2
30 90 1
30 91 3
30 92 5
30 93 5
30 94 5
30 95 1
30 96 1
30 97 3
30 98 1
30 99 3
30 100 2
31 32 5
31 33 3
31 34 1
31 35 2
31 36 2
31 37 3
31 38 5
31 39 2
31 40 3
31 41 1
31 42 3
31 43 2
31 44 1
31 45 3
31 46 4
31 47 1
31 48 4
31 49 5
31 50 5
31 51 2
31 52 5
31 53 3
31 54 5
31 55 3
31 56 3
31 57 4
31 58 2
31 59 4
31 60 1
31 61 5
31 62 4
31 63 1
31 64 2
31 65 3
31 66 2
31 67 3
31 68 1
31 69 3
31 70 2
31 71 5
31 72 1
31 73 1
31 74 1
31 75 3
31 76 2
31 77 3
31 78 2
31 79 4
31 80 1
31 81 3
31 82 4
31 83 4
31 84 2
31 85 1
31 86 1
31 87 4
31 88 3
31 89 5
31 90 3
31 91 1
31 92 3
31 93 2
31 94 2
31 95 5
31 96 5
31 97 5
31 98 1
31 99 2
31 100 4
32 33 2
32 34 4
32 35 1
32 36 4
32 37 5
32 38 1
32 39 3
32 40 3
32 41 1
32 42 2
32 43 5
32 44 1
32 45 2
32 46 5
32 47 4
32 48 3
32 49 2
32 50 5
32 51 4
32 52 5
32 53 5
32 54 1
32 55 3
32 56 3
32 57 5
32 58 1
32 59 5
32 60 4
32 61 3
32 62 5
32 63 1
32 64 3
32 65 3
32 66 5
32 67 3
32 68 2
32 69 4
32 70 2
32 71 5
32 72 3
32 73 1
32 74 5
32 75 5
32 76 1
32 77 4
32 78 2
32 79 3
32 80 2
32 81 5
32 82 5
32 83 2
32 84 5
32 85 1
32 86 1
32 87 2
32 88 5
32 89 4
32 90 3
32 91 5
32 92 1
32 93 5
32 94 4
32 95 1
32 96 2
32 97 2
32 98 5
32 99 3
32 100 4
33 34 4
33 35 2
33 36 2
33 37 1
33 38 5
33 39 3
33 40 5
33 41 2
33 42 2
33 43 1
33 44 3
33 45 1
33 46 2
33 47 3
33 48 4
33 49 5
33 50 4
33 51 5
33 52 1
33 53 2
33 54 4
33 55 2
33 56 2
33 57 1
33 58 5
33 59 2
33 60 2
33 61 4
33 62 1
33 63 1
33 64 1
33 65 5
33 66 2
33 67 3
33 68 3
33 69 2
33 70 3
33 71 3
33 72 4
33 73 1
33 74 1
33 75 4
33 76 2
33 77 4
33 78 4
33 79 1
33 80 1
33 81 2
33 82 5
33 83 1
33 84 1
33 85 5
33 86 4
33 87 5
33 88 2
33 89 4
33 90 3
33 91 5
33 92 4
33 93 5
33 94 3
33 95 4
33 96 2
33 97 3
33 98 1
33 99 4
33 100 4
34 35 5
34 36 4
34 37 3
34 38 3
34 39 5
34 40 4
34 41 2
34 42 2
34 43 5
34 44 4
34 45 4
34 46 4
34 47 4
34 48 1
34 49 1
34 50 1
34 51 4
34 52 3
34 53 5
34 54 1
34 55 5
34 56 5
34 57 1
34 58 2
34 59 3
34 60 4
34 61 5
34 62 1
34 63 3
34 64 2
34 65 4
34 66 1
34 67 3
34 68 3
34 69 1
34 70 4
34 71 1
34 72 4
34 73 2
34 74 3
34 75 3
34 76 5
34 77 4
34 78 5
34 79 5
34 80 5
34 81 4
34 82 3
34 83 5
34 84 2
34 85 5
34 86 2
34 87 4
34 88 2
34 89 5
34 90 1
34 91 2
34 92 4
34 93 5
34 94 2
34 95 4
34 96 2
34 97 3
34 98 1
34 99 4
34 100 4
35 36 5
35 37 3
35 38 3
35 39 5
35 40 4
35 41 3
35 42 3
35 43 2
35 44 1
35 45 3
35 46 4
35 47 3
35 48 5
35 49 3
35 50 1
35 51 2
35 52 2
35 53 1
35 54 1
35 55 4
35 56 5
35 57 2
35 58 4
35 59 3
35 60 3
35 61 4
35 62 2
35 63 1
35 64 3
35 65 4
35 66 3
35 67 1
35 68 2
35 69 4
35 70 3
35 71 1
35 72 4
35 73 2
35 74 2
35 75 4
35 76 1
35 77 2
35 78 5
35 79 2
35 80 5
35 81 1
35 82 1
35 83 5
35 84 5
35 85 2
35 86 3
35 87 4
35 88 2
35 89 3
35 90 1
35 91 1
35 92 1
35 93 2
35 94 3
35 95 2
35 96 4
35 97 1
35 98 2
35 99 1
35 100 3
36 37 3
36 38 5
36 39 3
36 40 2
36 41 1
36 42 3
36 43 4
36 44 2
36 45 2
36 46 2
36 47 3
36 48 2
36 49 2
36 50 1
36 51 3
36 52 1
36 53 4
36 54 1
36 55 4
36 56 5
36 57 1
36 58 5
36 59 2
36 60 2
36 61 2
36 62 3
36 63 4
36 64 1
36 65 3
36 66 5
36 67 5
36 68 2
36 69 3
36 70 3
36 71 5
36 72 2
36 73 1
36 74 3
36 75 5
36 76 1
36 77 3
36 78 4
36 79 5
36 80 2
36 81 3
36 82 1
36 83 2
36 84 5
36 85 2
36 86 1
36 87 4
36 88 4
36 89 2
36 90 3
36 91 4
36 92 1
36 93 4
36 94 4
36 95 3
36 96 5
36 97 3
36 98 1
36 99 5
36 100 2
37 38 1
37 39 2
37 40 3
37 41 4
37 42 5
37 43 1
37 44 1
37 45 5
37 46 1
37 47 5
37 48 1
37 49 2
37 50 3
37 51 2
37 52 3
37 53 1
37 54 4
37 55 5
37 56 4
37 57 3
37 58 4
37 59 5
37 60 4
37 61 4
37 62 2
37 63 4
37 64 2
37 65 1
37 66 1
37 67 4
37 68 5
37 69 2
37 70 1
37 71 4
37 72 2
37 73 4
37 74 4
37 75 1
37 76 1
37 77 2
37 78 2
37 79 5
37 80 1
37 81 1
37 82 2
37 83 2
37 84 5
37 85 4
37 86 3
37 87 4
37 88 3
37 89 2
37 90 3
37 91 1
37 92 2
37 93 4
37 94 4
37 95 5
37 96 1
37 97 2
37 98 4
37 99 3
37 100 3
38 39 4
38 40 3
38 41 1
38 42 3
38 43 5
38 44 4
38 45 4
38 46 2
38 47 2
38 48 4
38 49 1
38 50 4
38 51 3
38 52 5
38 53 4
38 54 4
38 55 5
38 56 5
38 57 2
38 58 4
38 59 5
38 60 1
38 61 1
38 62 3
38 63 2
38 64 3
38 65 3
38 66 5
38 67 4
38 68 1
38 69 5
38 70 1
38 71 3
38 72 3
38 73 3
38 74 3
38 75 2
38 76 1
38 77 3
38 78 2
38 79 5
38 80 5
38 81 1
38 82 2
38 83 1
38 84 1
38 85 1
38 86 1
38 87 2
38 88 2
38 89 2
38 90 3
38 91 2
38 92 3
38 93 3
38 94 4
38 95 1
38 96 3
38 97 5
38 98 4
38 99 1
38 100 1
39 40 5
39 41 2
39 42 3
39 43 1
39 44 1
39 45 3
39 46 2
39 47 3
39 48 1
39 49 4
39 50 4
39 51 1
39 52 4
39 53 2
39 54 2
39 55 4
39 56 4
39 57 5
39 58 3
39 59 5
39 60 3
39 61 4
39 62 1
39 63 2
39 64 2
39 65 5
39 66 4
39 67 2
39 68 4
39 69 4
39 70 2
39 71 3
39 72 3
39 73 5
39 74 3
39 75 1
39 76 4
39 77 4
39 78 1
39 79 5
39 80 3
39 81 1
39 82 5
39 83 2
39 84 1
39 85 2
39 86 1
39 87 3
39 88 1
39 89 3
39 90 5
39 91 5
39 92 3
39 93 5
39 94 4
39 95 5
39 96 1
39 97 3
39 98 4
39 99 3
39 100 1
40 41 1
40 42 5
40 43 3
40 44 1
40 45 1
40 46 5
40 47 1
40 48 3
40 49 1
40 50 3
40 51 1
40 52 5
40 53 2
40 54 5
40 55 2
40 56 3
40 57 2
40 58 5
40 59 1
40 60 5
40 61 2
40 62 1
40 63 3
40 64 3
40 65 3
40 66 4
40 67 3
40 68 4
40 69 2
40 70 3
40 71 4
40 72 2
40 73 3
40 74 2
40 75 5
40 76 2
40 77 1
40 78 3
40 79 4
40 80 5
40 81 1
40 82 3
40 83 5
40 84 4
40 85 2
40 86 4
40 87 3
40 88 3
40 89 1
40 90 1
40 91 3
40 92 4
40 93 5
40 94 2
40 95 3
40 96 5
40 97 3
40 98 3
40 99 2
40 100 4
41 42 5
41 43 5
41 44 5
41 45 5
41 46 4
41 47 4
41 48 5
41 49 2
41 50 3
41 51 2
41 52 5
41 53 4
41 54 4
41 55 4
41 56 2
41 57 5
41 58 1
41 59 3
41 60 5
41 61 3
41 62 5
41 63 3
41 64 5
41 65 1
41 66 3
41 67 3
41 68 3
41 69 5
41 70 4
41 71 3
41 72 2
41 73 3
41 74 3
41 75 2
41 76 3
41 77 1
41 78 2
41 79 3
41 80 1
41 81 5
41 82 2
41 83 2
41 84 2
41 85 1
41 86 3
41 87 4
41 88 4
41 89 3
41 90 5
41 91 3
41 92 4
41 93 2
41 94 5
41 95 2
41 96 1
41 97 5
41 98 3
41 99 2
41 100 5
42 43 3
42 44 3
42 45 5
42 46 4
42 47 1
42 48 2
42 49 5
42 50 4
42 51 5
42 52 4
42 53 3
42 54 3
42 55 1
42 56 2
42 57 5
42 58 1
42 59 1
42 60 4
42 61 1
42 62 5
42 63 3
42 64 4
42 65 1
42 66 1
42 67 1
42 68 4
42 69 1
42 70 3
42 71 1
42 72 2
42 73 4
42 74 5
42 75 2
42 76 2
42 77 5
42 78 2
42 79 1
42 80 5
42 81 4
42 82 3
42 83 5
42 84 5
42 85 5
42 86 5
42 87 3
42 88 4
42 89 3
42 90 4
42 91 2
42 92 5
42 93 4
42 94 4
42 95 2
42 96 2
42 97 3
42 98 2
42 99 1
42 100 3
43 44 1
43 45 5
43 46 4
43 47 5
43 48 2
43 49 1
43 50 3
43 51 1
43 52 1
43 53 2
43 54 2
43 55 2
43 56 4
43 57 3
43 58 1
43 59 4
43 60 5
43 61 2
43 62 5
43 63 3
43 64 4
43 65 2
43 66 5
43 67 1
43 68 1
43 69 2
43 70 1
43 71 5
43 72 5
43 73 3
43 74 5
43 75 1
43 76 1
43 77 4
43 78 2
43 79 4
43 80 5
43 81 3
43 82 3
43 83 3
43 84 5
43 85 4
43 86 2
43 87 1
43 88 5
43 89 3
43 90 4
43 91 4
43 92 2
43 93 4
43 94 3
43 95 1
43 96 5
43 97 1
43 98 4
43 99 3
43 100 2
44 45 3
44 46 3
44 47 4
44 48 5
44 49 4
44 50 3
44 51 5
44 52 1
44 53 1
44 54 5
44 55 1
44 56 4
44 57 3
44 58 1
44 59 2
44 60 5
44 61 4
44 62 3
44 63 3
44 64 3
44 65 4
44 66 5
44 67 1
44 68 4
44 69 4
44 70 3
44 71 3
44 72 4
44 73 1
44 74 4
44 75 1
44 76 5
44 77 1
44 78 3
44 79 2
44 80 2
44 81 3
44 82 1
44 83 1
44 84 1
44 85 5
44 86 3
44 87 2
44 88 2
44 89 1
44 90 5
44 91 2
44 92 4
44 93 2
44 94 5
44 95 3
44 96 5
44 97 1
44 98 1
44 99 2
44 100 3
45 46 4
45 47 3
45 48 5
45 49 3
45 50 2
45 51 3
45 52 1
45 53 5
45 54 4
45 55 2
45 56 3
45 57 3
45 58 3
45 59 2
45 60 2
45 61 3
45 62 1
45 63 1
45 64 1
45 65 3
45 66 5
45 67 3
45 68 1
45 69 5
45 70 5
45 71 5
45 72 1
45 73 3
45 74 1
45 75 2
45 76 4
45 77 3
45 78 1
45 79 4
45 80 4
45 81 4
45 82 1
45 83 1
45 84 3
45 85 3
45 86 5
45 87 4
45 88 1
45 89 1
45 90 4
45 91 5
45 92 4
45 93 4
45 94 1
45 95 4
45 96 4
45 97 5
45 98 4
45 99 5
45 100 4
46 47 5
46 48 5
46 49 2
46 50 1
46 51 4
46 52 4
46 53 5
46 54 4
46 55 2
46 56 5
46 57 3
46 58 4
46 59 1
46 60 5
46 61 2
46 62 1
46 63 5
46 64 3
46 65 3
46 66 1
46 67 2
46 68 5
46 69 1
46 70 2
46 71 1
46 72 1
46 73 2
46 74 5
46 75 4
46 76 3
46 77 1
46 78 2
46 79 1
46 80 2
46 81 4
46 82 5
46 83 2
46 84 3
46 85 3
46 86 3
46 87 4
46 88 2
46 89 4
46 90 5
46 91 3
46 92 1
46 93 4
46 94 3
46 95 4
46 96 2
46 97 3
46 98 5
46 99 5
46 100 5
47 48 5
47 49 2
47 50 1
47 51 4
47 52 5
47 53 1
47 54 1
47 55 1
47 56 5
47 57 2
47 58 3
47 59 4
47 60 3
47 61 2
47 62 3
47 63 4
47 64 1
47 65 3
47 66 5
47 67 4
47 68 4
47 69 4
47 70 4
47 71 1
47 72 4
47 73 3
47 74 4
47 75 4
47 76 1
47 77 3
47 78 1
47 79 2
47 80 3
47 81 1
47 82 2
47 83 3
47 84 1
47 85 4
47 86 5
47 87 5
47 88 4
47 89 1
47 90 4
47 91 2
47 92 5
47 93 5
47 94 5
47 95 4
47 96 1
47 97 2
47 98 2
47 99 3
47 100 5
48 49 1
48 50 2
48 51 2
48 52 2
48 53 1
48 54 4
48 55 2
48 56 4
48 57 3
48 58 4
48 59 2
48 60 1
48 61 4
48 62 2
48 63 4
48 64 3
48 65 2
48 66 2
48 67 2
48 68 2
48 69 5
48 70 3
48 71 3
48 72 3
48 73 1
48 74 3
48 75 4
48 76 3
48 77 5
48 78 3
48 79 3
48 80 1
48 81 2
48 82 5
48 83 4
48 84 3
48 85 3
48 86 5
48 87 4
48 88 4
48 89 1
48 90 1
48 91 1
48 92 3
48 93 3
48 94 4
48 95 4
48 96 2
48 97 4
48 98 3
48 99 1
48 100 3
49 50 4
49 51 3
49 52 4
49 53 5
49 54 1
49 55 4
49 56 5
49 57 2
49 58 2
49 59 5
49 60 3
49 61 2
49 62 5
49 63 5
49 64 5
49 65 4
49 66 3
49 67 5
49 68 3
49 69 1
49 70 1
49 71 5
49 72 5
49 73 5
49 74 3
49 75 2
49 76 4
49 77 5
49 78 4
49 79 1
49 80 5
49 81 4
49 82 3
49 83 1
49 84 1
49 85 1
49 86 4
49 87 2
49 88 2
49 89 5
49 90 3
49 91 3
49 92 3
49 93 1
49 94 5
49 95 2
49 96 4
49 97 5
49 98 5
49 99 5
49 100 3
50 51 2
50 52 1
50 53 5
50 54 3
50 55 3
50 56 3
50 57 1
50 58 5
50 59 1
50 60 4
50 61 4
50 62 3
50 63 4
50 64 4
50 65 4
50 66 5
50 67 2
50 68 1
50 69 5
50 70 4
50 71 5
50 72 5
50 73 1
50 74 3
50 75 4
50 76 1
50 77 2
50 78 5
50 79 1
50 80 1
50 81 3
50 82 2
50 83 5
50 84 2
50 85 4
50 86 1
50 87 3
50 88 2
50 89 4
50 90 4
50 91 4
50 92 5
50 93 2
50 94 1
50 95 1
50 96 3
50 97 4
50 98 4
50 99 1
50 100 1
51 52 1
51 53 5
51 54 2
51 55 2
51 56 4
51 57 4
51 58 5
51 59 1
51 60 2
51 61 1
51 62 2
51 63 5
51 64 5
51 65 5
51 66 4
51 67 4
51 68 3
51 69 4
51 70 2
51 71 3
51 72 1
51 73 4
51 74 2
51 75 2
51 76 2
51 77 1
51 78 4
51 79 5
51 80 3
51 81 4
51 82 3
51 83 4
51 84 4
51 85 2
51 86 2
51 87 4
51 88 2
51 89 3
51 90 4
51 91 1
51 92 4
51 93 1
51 94 2
51 95 3
51 96 5
51 97 5
51 98 3
51 99 4
51 100 1
52 53 5
52 54 4
52 55 1
52 56 3
52 57 1
52 58 2
52 59 5
52 60 3
52 61 5
52 62 1
52 63 1
52 64 4
52 65 3
52 66 5
52 67 4
52 68 5
52 69 2
52 70 2
52 71 4
52 72 3
52 73 4
52 74 1
52 75 3
52 76 2
52 77 3
52 78 2
52 79 1
52 80 1
52 81 2
52 82 1
52 83 3
52 84 2
52 85 5
52 86 3
52 87 5
52 88 3
52 89 3
52 90 4
52 91 3
52 92 2
52 93 1
52 94 2
52 95 3
52 96 2
52 97 4
52 98 3
52 99 5
52 100 2
53 54 4
53 55 4
53 56 1
53 57 1
53 58 3
53 59 2
53 60 4
53 61 5
53 62 3
53 63 3
53 64 5
53 65 2
53 66 4
53 67 1
53 68 3
53 69 5
53 70 4
53 71 3
53 72 4
53 73 2
53 74 1
53 75 5
53 76 2
53 77 2
53 78 2
53 79 3
53 80 3
53 81 2
53 82 2
53 83 4
53 84 2
53 85 3
53 86 2
53 87 2
53 88 1
53 89 1
53 90 4
53 91 2
53 92 4
53 93 5
53 94 4
53 95 4
53 96 1
53 97 2
53 98 5
53 99 5
53 100 4
54 55 4
54 56 3
54 57 3
54 58 4
54 59 2
54 60 5
54 61 3
54 62 2
54 63 3
54 64 2
54 65 4
54 66 5
54 67 1
54 68 2
54 69 1
54 70 2
54 71 5
54 72 4
54 73 2
54 74 1
54 75 1
54 76 1
54 77 2
54 78 2
54 79 4
54 80 2
54 81 5
54 82 3
54 83 2
54 84 1
54 85 1
54 86 5
54 87 3
54 88 4
54 89 1
54 90 1
54 91 5
54 92 3
54 93 5
54 94 5
54 95 5
54 96 5
54 97 4
54 98 3
54 99 2
54 100 1
55 56 3
55 57 3
55 58 1
55 59 1
55 60 1
55 61 5
55 62 2
55 63 1
55 64 1
55 65 1
55 66 1
55 67 5
55 68 4
55 69 4
55 70 3
55 71 5
55 72 3
55 73 5
55 74 2
55 75 1
55 76 5
55 77 2
55 78 5
55 79 1
55 80 2
55 81 3
55 82 5
55 83 4
55 84 1
55 85 3
55 86 3
55 87 4
55 88 3
55 89 4
55 90 3
55 91 2
55 92 3
55 93 2
55 94 2
55 95 2
55 96 3
55 97 4
55 98 3
55 99 5
55 100 5
56 57 4
56 58 5
56 59 1
56 60 5
56 61 4
56 62 2
56 63 4
56 64 2
56 65 2
56 66 1
56 67 3
56 68 4
56 69 3
56 70 3
56 71 2
56 72 2
56 73 2
56 74 2
56 75 2
56 76 1
56 77 4
56 78 1
56 79 1
56 80 1
56 81 4
56 82 4
56 83 3
56 84 5
56 85 2
56 86 4
56 87 2
56 88 5
56 89 2
56 90 3
56 91 1
56 92 2
56 93 1
56 94 3
56 95 3
56 96 2
56 97 3
56 98 4
56 99 4
56 100 1
57 58 5
57 59 5
57 60 4
57 61 5
57 62 1
57 63 1
57 64 3
57 65 3
57 66 3
57 67 3
57 68 3
57 69 3
57 70 3
57 71 3
57 72 3
57 73 4
57 74 1
57 75 1
57 76 2
57 77 2
57 78 3
57 79 2
57 80 4
57 81 4
57 82 2
57 83 5
57 84 4
57 85 5
57 86 2
57 87 2
57 88 1
57 89 1
57 90 3
57 91 2
57 92 5
57 93 4
57 94 1
57 95 1
57 96 1
57 97 4
57 98 4
57 99 1
57 100 2
58 59 5
58 60 4
58 61 4
58 62 1
58 63 3
58 64 5
58 65 4
58 66 1
58 67 1
58 68 2
58 69 2
58 70 1
58 71 4
58 72 2
58 73 2
58 74 1
58 75 1
58 76 2
58 77 2
58 78 3
58 79 5
58 80 4
58 81 4
58 82 3
58 83 3
58 84 2
58 85 2
58 86 1
58 87 5
58 88 4
58 89 2
58 90 3
58 91 5
58 92 5
58 93 5
58 94 5
58 95 3
58 96 4
58 97 5
58 98 5
58 99 4
58 100 5
59 60 4
59 61 2
59 62 4
59 63 5
59 64 5
59 65 3
59 66 5
59 67 3
59 68 3
59 69 4
59 70 3
59 71 5
59 72 2
59 73 1
59 74 1
59 75 5
59 76 4
59 77 5
59 78 5
59 79 5
59 80 5
59 81 5
59 82 5
59 83 2
59 84 5
59 85 1
59 86 1
59 87 5
59 88 4
59 89 4
59 90 5
59 91 2
59 92 4
59 93 4
59 94 1
59 95 4
59 96 2
59 97 5
59 98 1
59 99 1
59 100 5
60 61 2
60 62 4
60 63 5
60 64 5
60 65 3
60 66 2
60 67 1
60 68 4
60 69 5
60 70 5
60 71 1
60 72 1
60 73 5
60 74 1
60 75 4
60 76 3
60 77 4
60 78 1
60 79 2
60 80 5
60 81 4
60 82 1
60 83 5
60 84 1
60 85 4
60 86 2
60 87 1
60 88 1
60 89 4
60 90 4
60 91 1
60 92 5
60 93 2
60 94 4
60 95 5
60 96 2
60 97 5
60 98 1
60 99 3
60 100 3
61 62 4
61 63 1
61 64 2
61 65 3
61 66 4
61 67 3
61 68 5
61 69 5
61 70 3
61 71 1
61 72 3
61 73 5
61 74 3
61 75 2
61 76 3
61 77 4
61 78 2
61 79 3
61 80 3
61 81 1
61 82 3
61 83 1
61 84 3
61 85 1
61 86 2
61 87 1
61 88 1
61 89 3
61 90 2
61 91 5
61 92 4
61 93 2
61 94 5
61 95 1
61 96 4
61 97 1
61 98 3
61 99 2
61 100 2
62 63 1
62 64 3
62 65 5
62 66 2
62 67 4
62 68 5
62 69 3
62 70 5
62 71 2
62 72 4
62 73 3
62 74 5
62 75 4
62 76 1
62 77 3
62 78 5
62 79 4
62 80 5
62 81 4
62 82 2
62 83 1
62 84 1
62 85 4
62 86 2
62 87 5
62 88 2
62 89 1
62 90 3
62 91 4
62 92 5
62 93 2
62 94 4
62 95 1
62 96 3
62 97 2
62 98 4
62 99 2
62 100 5
63 64 2
63 65 2
63 66 3
63 67 5
63 68 1
63 69 5
63 70 1
63 71 1
63 72 2
63 73 3
63 74 4
63 75 3
63 76 4
63 77 3
63 78 3
63 79 2
63 80 2
63 81 3
63 82 2
63 83 1
63 84 5
63 85 4
63 86 2
63 87 2
63 88 4
63 89 1
63 90 1
63 91 2
63 92 3
63 93 5
63 94 2
63 95 5
63 96 1
63 97 5
63 98 4
63 99 2
63 100 2
64 65 4
64 66 2
64 67 3
64 68 1
64 69 3
64 70 2
64 71 1
64 72 1
64 73 5
64 74 4
64 75 2
64 76 5
64 77 5
64 78 3
64 79 3
64 80 2
64 81 2
64 82 1
64 83 5
64 84 3
64 85 4
64 86 2
64 87 4
64 88 1
64 89 5
64 90 4
64 91 4
64 92 3
64 93 1
64 94 5
64 95 3
64 96 1
64 97 5
64 98 2
64 99 5
64 100 3
65 66 5
65 67 2
65 68 5
65 69 3
65 70 4
65 71 1
65 72 1
65 73 4
65 74 4
65 75 1
65 76 3
65 77 5
65 78 5
65 79 1
65 80 5
65 81 3
65 82 5
65 83 3
65 84 5
65 85 3
65 86 4
65 87 2
65 88 4
65 89 4
65 90 1
65 91 4
65 92 2
65 93 4
65 94 5
65 95 1
65 96 4
65 97 5
65 98 3
65 99 2
65 100 5
66 67 4
66 68 2
66 69 2
66 70 2
66 71 1
66 72 2
66 73 2
66 74 3
66 75 1
66 76 1
66 77 1
66 78 1
66 79 5
66 80 4
66 81 3
66 82 1
66 83 3
66 84 5
66 85 4
66 86 3
66 87 4
66 88 4
66 89 1
66 90 5
66 91 3
66 92 2
66 93 5
66 94 4
66 95 1
66 96 3
66 97 1
66 98 4
66 99 5
66 100 1
67 68 3
67 69 5
67 70 1
67 71 3
67 72 1
67 73 1
67 74 4
67 75 3
67 76 1
67 77 3
67 78 3
67 79 3
67 80 4
67 81 3
67 82 2
67 83 5
67 84 5
67 85 2
67 86 2
67 87 4
67 88 5
67 89 1
67 90 3
67 91 2
67 92 2
67 93 2
67 94 2
67 95 3
67 96 2
67 97 1
67 98 4
67 99 4
67 100 1
68 69 4
68 70 2
68 71 5
68 72 4
68 73 4
68 74 3
68 75 5
68 76 5
68 77 3
68 78 3
68 79 1
68 80 2
68 81 1
68 82 1
68 83 2
68 84 3
68 85 5
68 86 1
68 87 4
68 88 4
68 89 2
68 90 5
68 91 2
68 92 5
68 93 3
68 94 5
68 95 3
68 96 3
68 97 5
68 98 5
68 99 1
68 100 5
69 70 3
69 71 5
69 72 1
69 73 3
69 74 2
69 75 5
69 76 2
69 77 1
69 78 4
69 79 1
69 80 5
69 81 2
69 82 5
69 83 2
69 84 5
69 85 4
69 86 1
69 87 5
69 88 3
69 89 4
69 90 2
69 91 2
69 92 2
69 93 2
69 94 5
69 95 5
69 96 4
69 97 5
69 98 4
69 99 2
69 100 2
70 71 1
70 72 1
70 73 1
70 74 1
70 75 5
70 76 1
70 77 1
70 78 4
70 79 3
70 80 2
70 81 4
70 82 1
70 83 1
70 84 5
70 85 2
70 86 5
70 87 5
70 88 5
70 89 4
70 90 3
70 91 4
70 92 4
70 93 4
70 94 5
70 95 3
70 96 1
70 97 4
70 98 1
70 99 1
70 100 4
71 72 1
71 73 1
71 74 5
71 75 1
71 76 1
71 77 3
71 78 1
71 79 5
71 80 2
71 81 5
71 82 2
71 83 5
71 84 1
71 85 2
71 86 1
71 87 5
71 88 3
71 89 4
71 90 4
71 91 2
71 92 1
71 93 3
71 94 1
71 95 2
71 96 4
71 97 3
71 98 5
71 99 1
71 100 4
72 73 4
72 74 3
72 75 3
72 76 4
72 77 4
72 78 1
72 79 1
72 80 1
72 81 5
72 82 3
72 83 1
72 84 2
72 85 5
72 86 2
72 87 1
72 88 3
72 89 2
72 90 3
72 91 4
72 92 4
72 93 5
72 94 2
72 95 1
72 96 4
72 97 3
72 98 2
72 99 3
72 100 2
73 74 5
73 75 5
73 76 3
73 77 4
73 78 2
73 79 2
73 80 4
73 81 2
73 82 1
73 83 3
73 84 4
73 85 3
73 86 3
73 87 1
73 88 3
73 89 2
73 90 3
73 91 3
73 92 5
73 93 4
73 94 3
73 95 2
73 96 3
73 97 2
73 98 3
73 99 5
73 100 4
74 75 3
74 76 4
74 77 2
74 78 5
74 79 4
74 80 5
74 81 2
74 82 1
74 83 3
74 84 1
74 85 2
74 86 1
74 87 3
74 88 4
74 89 4
74 90 3
74 91 5
74 92 2
74 93 3
74 94 1
74 95 3
74 96 4
74 97 2
74 98 1
74 99 3
74 100 2
75 76 5
75 77 4
75 78 2
75 79 2
75 80 3
75 81 1
75 82 4
75 83 5
75 84 3
75 85 5
75 86 1
75 87 1
75 88 5
75 89 3
75 90 5
75 91 4
75 92 1
75 93 4
75 94 2
75 95 1
75 96 4
75 97 2
75 98 1
75 99 3
75 100 2
76 77 4
76 78 3
76 79 3
76 80 1
76 81 2
76 82 3
76 83 3
76 84 1
76 85 3
76 86 3
76 87 4
76 88 5
76 89 4
76 90 5
76 91 3
76 92 1
76 93 3
76 94 2
76 95 3
76 96 4
76 97 4
76 98 1
76 99 4
76 100 3
77 78 2
77 79 2
77 80 2
77 81 5
77 82 3
77 83 3
77 84 1
77 85 4
77 86 4
77 87 2
77 88 5
77 89 5
77 90 4
77 91 4
77 92 3
77 93 3
77 94 1
77 95 1
77 96 2
77 97 1
77 98 4
77 99 5
77 100 5
78 79 4
78 80 5
78 81 2
78 82 5
78 83 3
78 84 1
78 85 4
78 86 1
78 87 2
78 88 5
78 89 1
78 90 5
78 91 3
78 92 3
78 93 4
78 94 5
78 95 3
78 96 3
78 97 5
78 98 5
78 99 4
78 100 1
79 80 3
79 81 3
79 82 5
79 83 3
79 84 1
79 85 2
79 86 4
79 87 4
79 88 1
79 89 5
79 90 1
79 91 2
79 92 1
79 93 5
79 94 4
79 95 2
79 96 5
79 97 5
79 98 4
79 99 5
79 100 3
80 81 2
80 82 5
80 83 3
80 84 3
80 85 4
80 86 2
80 87 4
80 88 5
80 89 2
80 90 1
80 91 3
80 92 4
80 93 3
80 94 5
80 95 4
80 96 5
80 97 3
80 98 5
80 99 4
80 100 3
81 82 5
81 83 5
81 84 3
81 85 3
81 86 3
81 87 5
81 88 2
81 89 1
81 90 5
81 91 3
81 92 1
81 93 4
81 94 5
81 95 3
81 96 5
81 97 2
81 98 2
81 99 4
81 100 4
82 83 4
82 84 5
82 85 1
82 86 1
82 87 5
82 88 5
82 89 5
82 90 5
82 91 4
82 92 4
82 93 1
82 94 2
82 95 3
82 96 5
82 97 3
82 98 1
82 99 2
82 100 2
83 84 5
83 85 3
83 86 2
83 87 3
83 88 4
83 89 4
83 90 5
83 91 1
83 92 4
83 93 3
83 94 3
83 95 5
83 96 1
83 97 1
83 98 1
83 99 2
83 100 1
84 85 1
84 86 3
84 87 5
84 88 2
84 89 3
84 90 5
84 91 1
84 92 4
84 93 3
84 94 1
84 95 3
84 96 5
84 97 3
84 98 2
84 99 2
84 100 5
85 86 2
85 87 2
85 88 3
85 89 4
85 90 1
85 91 1
85 92 5
85 93 2
85 94 3
85 95 3
85 96 2
85 97 5
85 98 5
85 99 2
85 100 5
86 87 3
86 88 3
86 89 4
86 90 3
86 91 2
86 92 3
86 93 4
86 94 1
86 95 1
86 96 1
86 97 3
86 98 2
86 99 3
86 100 5
87 88 4
87 89 2
87 90 3
87 91 2
87 92 1
87 93 2
87 94 1
87 95 5
87 96 5
87 97 2
87 98 5
87 99 5
87 100 1
88 89 3
88 90 5
88 91 3
88 92 3
88 93 2
88 94 1
88 95 1
88 96 4
88 97 3
88 98 1
88 99 3
88 100 1
89 90 2
89 91 1
89 92 5
89 93 1
89 94 5
89 95 2
89 96 2
89 97 4
89 98 4
89 99 4
89 100 3
90 91 3
90 92 5
90 93 3
90 94 4
90 95 4
90 96 4
90 97 2
90 98 3
90 99 3
90 100 3
91 92 3
91 93 1
91 94 5
91 95 1
91 96 2
91 97 2
91 98 2
91 99 3
91 100 3
92 93 2
92 94 5
92 95 1
92 96 3
92 97 5
92 98 1
92 99 4
92 100 2
93 94 4
93 95 3
93 96 2
93 97 2
93 98 5
93 99 4
93 100 3
94 95 4
94 96 3
94 97 4
94 98 1
94 99 1
94 100 2
95 96 3
95 97 4
95 98 2
95 99 3
95 100 5
96 97 4
96 98 1
96 99 1
96 100 4
97 98 2
97 99 3
97 100 5
98 99 2
98 100 4
99 100 4
